p cnf 1768
-23 -555
-24 -558
-25 -561
-26 -564
-27 -567
-28 -570
-29 -573
-30 -576
-31 -579
-32 -582
-33 -585
-34 -588
-35 -591
-36 -594
-37 -597
-38 -600
-39 -603
-40 -606
-41 -609
-42 -612
-43 -615
-44 -618
-45 619
-46 620
-47 621
-48 622
-49 623
-50 624
-51 625
-52 626
-53 627
-54 628
-55 629
-56 630
-57 631
-58 632
-59 633
-60 634
-61 635
-62 -24
-62 -25
24 25 62
-63 -26
-63 -27
26 27 63
-64 -28
-64 -29
28 29 64
-65 -30
-65 -31
30 31 65
-66 -32
-66 -33
32 33 66
-67 -34
-67 -35
34 35 67
-68 -36
-68 -37
36 37 68
-69 -38
-69 -39
38 39 69
-70 -40
-70 -41
40 41 70
-71 -42
-71 -43
42 43 71
-72 -44
-72 -45
44 45 72
-73 -46
-73 -47
46 47 73
-74 -48
-74 -49
48 49 74
-75 -50
-75 -51
50 51 75
-76 -52
-76 -53
52 53 76
-77 -54
-77 -55
54 55 77
-78 -56
-78 -57
56 57 78
-79 -58
-79 -59
58 59 79
-80 -60
-80 -61
60 61 80
-81 62
-81 63
-62 -63 81
-82 64
-82 65
-64 -65 82
-83 66
-83 67
-66 -67 83
-84 68
-84 69
-68 -69 84
-85 70
-85 71
-70 -71 85
-86 72
-86 73
-72 -73 86
-87 74
-87 75
-74 -75 87
-88 76
-88 77
-76 -77 88
-89 78
-89 79
-78 -79 89
-90 81
-90 82
-81 -82 90
-91 83
-91 84
-83 -84 91
-92 85
-92 86
-85 -86 92
-93 87
-93 88
-87 -88 93
-94 80
-94 89
-80 -89 94
-95 90
-95 91
-90 -91 95
-96 92
-96 93
-92 -93 96
-97 95
-97 96
-95 -96 97
-98 94
-98 97
-94 -97 98
-99 -23
-99 24
23 -24 99
-100 23
-100 -24
-23 24 100
-101 -99
-101 -100
99 100 101
-102 23
-102 24
-23 -24 102
-103 -23
-103 -101
23 101 103
-104 23
-104 101
-23 -101 104
-105 -103
-105 -104
103 104 105
-106 23
-106 -101
-23 101 106
-107 -102
-107 -106
102 106 107
-108 -24
-108 25
24 -25 108
-109 24
-109 -25
-24 25 109
-110 -108
-110 -109
108 109 110
-111 24
-111 25
-24 -25 111
-112 107
-112 -110
-107 110 112
-113 -107
-113 110
107 -110 113
-114 -112
-114 -113
112 113 114
-115 -107
-115 -110
107 110 115
-116 -111
-116 -115
111 115 116
-117 -25
-117 26
25 -26 117
-118 25
-118 -26
-25 26 118
-119 -117
-119 -118
117 118 119
-120 25
-120 26
-25 -26 120
-121 116
-121 -119
-116 119 121
-122 -116
-122 119
116 -119 122
-123 -121
-123 -122
121 122 123
-124 -116
-124 -119
116 119 124
-125 -120
-125 -124
120 124 125
-126 -26
-126 27
26 -27 126
-127 26
-127 -27
-26 27 127
-128 -126
-128 -127
126 127 128
-129 26
-129 27
-26 -27 129
-130 125
-130 -128
-125 128 130
-131 -125
-131 128
125 -128 131
-132 -130
-132 -131
130 131 132
-133 -125
-133 -128
125 128 133
-134 -129
-134 -133
129 133 134
-135 -27
-135 28
27 -28 135
-136 27
-136 -28
-27 28 136
-137 -135
-137 -136
135 136 137
-138 27
-138 28
-27 -28 138
-139 134
-139 -137
-134 137 139
-140 -134
-140 137
134 -137 140
-141 -139
-141 -140
139 140 141
-142 -134
-142 -137
134 137 142
-143 -138
-143 -142
138 142 143
-144 -28
-144 29
28 -29 144
-145 28
-145 -29
-28 29 145
-146 -144
-146 -145
144 145 146
-147 28
-147 29
-28 -29 147
-148 143
-148 -146
-143 146 148
-149 -143
-149 146
143 -146 149
-150 -148
-150 -149
148 149 150
-151 -143
-151 -146
143 146 151
-152 -147
-152 -151
147 151 152
-153 -29
-153 30
29 -30 153
-154 29
-154 -30
-29 30 154
-155 -153
-155 -154
153 154 155
-156 29
-156 30
-29 -30 156
-157 152
-157 -155
-152 155 157
-158 -152
-158 155
152 -155 158
-159 -157
-159 -158
157 158 159
-160 -152
-160 -155
152 155 160
-161 -156
-161 -160
156 160 161
-162 -30
-162 31
30 -31 162
-163 30
-163 -31
-30 31 163
-164 -162
-164 -163
162 163 164
-165 30
-165 31
-30 -31 165
-166 161
-166 -164
-161 164 166
-167 -161
-167 164
161 -164 167
-168 -166
-168 -167
166 167 168
-169 -161
-169 -164
161 164 169
-170 -165
-170 -169
165 169 170
-171 -31
-171 32
31 -32 171
-172 31
-172 -32
-31 32 172
-173 -171
-173 -172
171 172 173
-174 31
-174 32
-31 -32 174
-175 170
-175 -173
-170 173 175
-176 -170
-176 173
170 -173 176
-177 -175
-177 -176
175 176 177
-178 -170
-178 -173
170 173 178
-179 -174
-179 -178
174 178 179
-180 -32
-180 33
32 -33 180
-181 32
-181 -33
-32 33 181
-182 -180
-182 -181
180 181 182
-183 32
-183 33
-32 -33 183
-184 179
-184 -182
-179 182 184
-185 -179
-185 182
179 -182 185
-186 -184
-186 -185
184 185 186
-187 -179
-187 -182
179 182 187
-188 -183
-188 -187
183 187 188
-189 -33
-189 34
33 -34 189
-190 33
-190 -34
-33 34 190
-191 -189
-191 -190
189 190 191
-192 33
-192 34
-33 -34 192
-193 188
-193 -191
-188 191 193
-194 -188
-194 191
188 -191 194
-195 -193
-195 -194
193 194 195
-196 -188
-196 -191
188 191 196
-197 -192
-197 -196
192 196 197
-198 -34
-198 35
34 -35 198
-199 34
-199 -35
-34 35 199
-200 -198
-200 -199
198 199 200
-201 34
-201 35
-34 -35 201
-202 197
-202 -200
-197 200 202
-203 -197
-203 200
197 -200 203
-204 -202
-204 -203
202 203 204
-205 -197
-205 -200
197 200 205
-206 -201
-206 -205
201 205 206
-207 -35
-207 36
35 -36 207
-208 35
-208 -36
-35 36 208
-209 -207
-209 -208
207 208 209
-210 35
-210 36
-35 -36 210
-211 206
-211 -209
-206 209 211
-212 -206
-212 209
206 -209 212
-213 -211
-213 -212
211 212 213
-214 -206
-214 -209
206 209 214
-215 -210
-215 -214
210 214 215
-216 -36
-216 37
36 -37 216
-217 36
-217 -37
-36 37 217
-218 -216
-218 -217
216 217 218
-219 36
-219 37
-36 -37 219
-220 215
-220 -218
-215 218 220
-221 -215
-221 218
215 -218 221
-222 -220
-222 -221
220 221 222
-223 -215
-223 -218
215 218 223
-224 -219
-224 -223
219 223 224
-225 -37
-225 38
37 -38 225
-226 37
-226 -38
-37 38 226
-227 -225
-227 -226
225 226 227
-228 37
-228 38
-37 -38 228
-229 224
-229 -227
-224 227 229
-230 -224
-230 227
224 -227 230
-231 -229
-231 -230
229 230 231
-232 -224
-232 -227
224 227 232
-233 -228
-233 -232
228 232 233
-234 -38
-234 39
38 -39 234
-235 38
-235 -39
-38 39 235
-236 -234
-236 -235
234 235 236
-237 38
-237 39
-38 -39 237
-238 233
-238 -236
-233 236 238
-239 -233
-239 236
233 -236 239
-240 -238
-240 -239
238 239 240
-241 -233
-241 -236
233 236 241
-242 -237
-242 -241
237 241 242
-243 -39
-243 40
39 -40 243
-244 39
-244 -40
-39 40 244
-245 -243
-245 -244
243 244 245
-246 39
-246 40
-39 -40 246
-247 242
-247 -245
-242 245 247
-248 -242
-248 245
242 -245 248
-249 -247
-249 -248
247 248 249
-250 -242
-250 -245
242 245 250
-251 -246
-251 -250
246 250 251
-252 -40
-252 41
40 -41 252
-253 40
-253 -41
-40 41 253
-254 -252
-254 -253
252 253 254
-255 40
-255 41
-40 -41 255
-256 251
-256 -254
-251 254 256
-257 -251
-257 254
251 -254 257
-258 -256
-258 -257
256 257 258
-259 -251
-259 -254
251 254 259
-260 -255
-260 -259
255 259 260
-261 -41
-261 42
41 -42 261
-262 41
-262 -42
-41 42 262
-263 -261
-263 -262
261 262 263
-264 41
-264 42
-41 -42 264
-265 260
-265 -263
-260 263 265
-266 -260
-266 263
260 -263 266
-267 -265
-267 -266
265 266 267
-268 -260
-268 -263
260 263 268
-269 -264
-269 -268
264 268 269
-270 -42
-270 43
42 -43 270
-271 42
-271 -43
-42 43 271
-272 -270
-272 -271
270 271 272
-273 42
-273 43
-42 -43 273
-274 269
-274 -272
-269 272 274
-275 -269
-275 272
269 -272 275
-276 -274
-276 -275
274 275 276
-277 -269
-277 -272
269 272 277
-278 -273
-278 -277
273 277 278
-279 -43
-279 44
43 -44 279
-280 43
-280 -44
-43 44 280
-281 -279
-281 -280
279 280 281
-282 43
-282 44
-43 -44 282
-283 278
-283 -281
-278 281 283
-284 -278
-284 281
278 -281 284
-285 -283
-285 -284
283 284 285
-286 -278
-286 -281
278 281 286
-287 -282
-287 -286
282 286 287
-288 -44
-288 45
44 -45 288
-289 44
-289 -45
-44 45 289
-290 -288
-290 -289
288 289 290
-291 44
-291 45
-44 -45 291
-292 287
-292 -290
-287 290 292
-293 -287
-293 290
287 -290 293
-294 -292
-294 -293
292 293 294
-295 -287
-295 -290
287 290 295
-296 -291
-296 -295
291 295 296
-297 -45
-297 46
45 -46 297
-298 45
-298 -46
-45 46 298
-299 -297
-299 -298
297 298 299
-300 45
-300 46
-45 -46 300
-301 296
-301 -299
-296 299 301
-302 -296
-302 299
296 -299 302
-303 -301
-303 -302
301 302 303
-304 -296
-304 -299
296 299 304
-305 -300
-305 -304
300 304 305
-306 -46
-306 47
46 -47 306
-307 46
-307 -47
-46 47 307
-308 -306
-308 -307
306 307 308
-309 46
-309 47
-46 -47 309
-310 305
-310 -308
-305 308 310
-311 -305
-311 308
305 -308 311
-312 -310
-312 -311
310 311 312
-313 -305
-313 -308
305 308 313
-314 -309
-314 -313
309 313 314
-315 -47
-315 48
47 -48 315
-316 47
-316 -48
-47 48 316
-317 -315
-317 -316
315 316 317
-318 47
-318 48
-47 -48 318
-319 314
-319 -317
-314 317 319
-320 -314
-320 317
314 -317 320
-321 -319
-321 -320
319 320 321
-322 -314
-322 -317
314 317 322
-323 -318
-323 -322
318 322 323
-324 -48
-324 49
48 -49 324
-325 48
-325 -49
-48 49 325
-326 -324
-326 -325
324 325 326
-327 48
-327 49
-48 -49 327
-328 323
-328 -326
-323 326 328
-329 -323
-329 326
323 -326 329
-330 -328
-330 -329
328 329 330
-331 -323
-331 -326
323 326 331
-332 -327
-332 -331
327 331 332
-333 -49
-333 50
49 -50 333
-334 49
-334 -50
-49 50 334
-335 -333
-335 -334
333 334 335
-336 49
-336 50
-49 -50 336
-337 332
-337 -335
-332 335 337
-338 -332
-338 335
332 -335 338
-339 -337
-339 -338
337 338 339
-340 -332
-340 -335
332 335 340
-341 -336
-341 -340
336 340 341
-342 -50
-342 51
50 -51 342
-343 50
-343 -51
-50 51 343
-344 -342
-344 -343
342 343 344
-345 50
-345 51
-50 -51 345
-346 341
-346 -344
-341 344 346
-347 -341
-347 344
341 -344 347
-348 -346
-348 -347
346 347 348
-349 -341
-349 -344
341 344 349
-350 -345
-350 -349
345 349 350
-351 -51
-351 52
51 -52 351
-352 51
-352 -52
-51 52 352
-353 -351
-353 -352
351 352 353
-354 51
-354 52
-51 -52 354
-355 350
-355 -353
-350 353 355
-356 -350
-356 353
350 -353 356
-357 -355
-357 -356
355 356 357
-358 -350
-358 -353
350 353 358
-359 -354
-359 -358
354 358 359
-360 -52
-360 53
52 -53 360
-361 52
-361 -53
-52 53 361
-362 -360
-362 -361
360 361 362
-363 52
-363 53
-52 -53 363
-364 359
-364 -362
-359 362 364
-365 -359
-365 362
359 -362 365
-366 -364
-366 -365
364 365 366
-367 -359
-367 -362
359 362 367
-368 -363
-368 -367
363 367 368
-369 -53
-369 54
53 -54 369
-370 53
-370 -54
-53 54 370
-371 -369
-371 -370
369 370 371
-372 53
-372 54
-53 -54 372
-373 368
-373 -371
-368 371 373
-374 -368
-374 371
368 -371 374
-375 -373
-375 -374
373 374 375
-376 -368
-376 -371
368 371 376
-377 -372
-377 -376
372 376 377
-378 -54
-378 55
54 -55 378
-379 54
-379 -55
-54 55 379
-380 -378
-380 -379
378 379 380
-381 54
-381 55
-54 -55 381
-382 377
-382 -380
-377 380 382
-383 -377
-383 380
377 -380 383
-384 -382
-384 -383
382 383 384
-385 -377
-385 -380
377 380 385
-386 -381
-386 -385
381 385 386
-387 -55
-387 56
55 -56 387
-388 55
-388 -56
-55 56 388
-389 -387
-389 -388
387 388 389
-390 55
-390 56
-55 -56 390
-391 386
-391 -389
-386 389 391
-392 -386
-392 389
386 -389 392
-393 -391
-393 -392
391 392 393
-394 -386
-394 -389
386 389 394
-395 -390
-395 -394
390 394 395
-396 -56
-396 57
56 -57 396
-397 56
-397 -57
-56 57 397
-398 -396
-398 -397
396 397 398
-399 56
-399 57
-56 -57 399
-400 395
-400 -398
-395 398 400
-401 -395
-401 398
395 -398 401
-402 -400
-402 -401
400 401 402
-403 -395
-403 -398
395 398 403
-404 -399
-404 -403
399 403 404
-405 -57
-405 58
57 -58 405
-406 57
-406 -58
-57 58 406
-407 -405
-407 -406
405 406 407
-408 57
-408 58
-57 -58 408
-409 404
-409 -407
-404 407 409
-410 -404
-410 407
404 -407 410
-411 -409
-411 -410
409 410 411
-412 -404
-412 -407
404 407 412
-413 -408
-413 -412
408 412 413
-414 -58
-414 59
58 -59 414
-415 58
-415 -59
-58 59 415
-416 -414
-416 -415
414 415 416
-417 58
-417 59
-58 -59 417
-418 413
-418 -416
-413 416 418
-419 -413
-419 416
413 -416 419
-420 -418
-420 -419
418 419 420
-421 -413
-421 -416
413 416 421
-422 -417
-422 -421
417 421 422
-423 -59
-423 60
59 -60 423
-424 59
-424 -60
-59 60 424
-425 -423
-425 -424
423 424 425
-426 59
-426 60
-59 -60 426
-427 422
-427 -425
-422 425 427
-428 -422
-428 425
422 -425 428
-429 -427
-429 -428
427 428 429
-430 -422
-430 -425
422 425 430
-431 -426
-431 -430
426 430 431
-432 -60
-432 61
60 -61 432
-433 60
-433 -61
-60 61 433
-434 -432
-434 -433
432 433 434
-435 60
-435 61
-60 -61 435
-436 431
-436 -434
-431 434 436
-437 -431
-437 434
431 -434 437
-438 -436
-438 -437
436 437 438
-439 -431
-439 -434
431 434 439
-440 -435
-440 -439
435 439 440
-441 23
-441 -105
-23 105 441
-442 -23
-442 25
23 -25 442
-443 -441
-443 -442
441 442 443
-444 23
-444 -114
-23 114 444
-445 -23
-445 26
23 -26 445
-446 -444
-446 -445
444 445 446
-447 23
-447 -123
-23 123 447
-448 -23
-448 27
23 -27 448
-449 -447
-449 -448
447 448 449
-450 23
-450 -132
-23 132 450
-451 -23
-451 28
23 -28 451
-452 -450
-452 -451
450 451 452
-453 23
-453 -141
-23 141 453
-454 -23
-454 29
23 -29 454
-455 -453
-455 -454
453 454 455
-456 23
-456 -150
-23 150 456
-457 -23
-457 30
23 -30 457
-458 -456
-458 -457
456 457 458
-459 23
-459 -159
-23 159 459
-460 -23
-460 31
23 -31 460
-461 -459
-461 -460
459 460 461
-462 23
-462 -168
-23 168 462
-463 -23
-463 32
23 -32 463
-464 -462
-464 -463
462 463 464
-465 23
-465 -177
-23 177 465
-466 -23
-466 33
23 -33 466
-467 -465
-467 -466
465 466 467
-468 23
-468 -186
-23 186 468
-469 -23
-469 34
23 -34 469
-470 -468
-470 -469
468 469 470
-471 23
-471 -195
-23 195 471
-472 -23
-472 35
23 -35 472
-473 -471
-473 -472
471 472 473
-474 23
-474 -204
-23 204 474
-475 -23
-475 36
23 -36 475
-476 -474
-476 -475
474 475 476
-477 23
-477 -213
-23 213 477
-478 -23
-478 37
23 -37 478
-479 -477
-479 -478
477 478 479
-480 23
-480 -222
-23 222 480
-481 -23
-481 38
23 -38 481
-482 -480
-482 -481
480 481 482
-483 23
-483 -231
-23 231 483
-484 -23
-484 39
23 -39 484
-485 -483
-485 -484
483 484 485
-486 23
-486 -240
-23 240 486
-487 -23
-487 40
23 -40 487
-488 -486
-488 -487
486 487 488
-489 23
-489 -249
-23 249 489
-490 -23
-490 41
23 -41 490
-491 -489
-491 -490
489 490 491
-492 23
-492 -258
-23 258 492
-493 -23
-493 42
23 -42 493
-494 -492
-494 -493
492 493 494
-495 23
-495 -267
-23 267 495
-496 -23
-496 43
23 -43 496
-497 -495
-497 -496
495 496 497
-498 23
-498 -276
-23 276 498
-499 -23
-499 44
23 -44 499
-500 -498
-500 -499
498 499 500
-501 23
-501 -285
-23 285 501
-502 -23
-502 45
23 -45 502
-503 -501
-503 -502
501 502 503
-504 23
-504 -294
-23 294 504
-505 -23
-505 46
23 -46 505
-506 -504
-506 -505
504 505 506
-507 23
-507 -303
-23 303 507
-508 -23
-508 47
23 -47 508
-509 -507
-509 -508
507 508 509
-510 23
-510 -312
-23 312 510
-511 -23
-511 48
23 -48 511
-512 -510
-512 -511
510 511 512
-513 23
-513 -321
-23 321 513
-514 -23
-514 49
23 -49 514
-515 -513
-515 -514
513 514 515
-516 23
-516 -330
-23 330 516
-517 -23
-517 50
23 -50 517
-518 -516
-518 -517
516 517 518
-519 23
-519 -339
-23 339 519
-520 -23
-520 51
23 -51 520
-521 -519
-521 -520
519 520 521
-522 23
-522 -348
-23 348 522
-523 -23
-523 52
23 -52 523
-524 -522
-524 -523
522 523 524
-525 23
-525 -357
-23 357 525
-526 -23
-526 53
23 -53 526
-527 -525
-527 -526
525 526 527
-528 23
-528 -366
-23 366 528
-529 -23
-529 54
23 -54 529
-530 -528
-530 -529
528 529 530
-531 23
-531 -375
-23 375 531
-532 -23
-532 55
23 -55 532
-533 -531
-533 -532
531 532 533
-534 23
-534 -384
-23 384 534
-535 -23
-535 56
23 -56 535
-536 -534
-536 -535
534 535 536
-537 23
-537 -393
-23 393 537
-538 -23
-538 57
23 -57 538
-539 -537
-539 -538
537 538 539
-540 23
-540 -402
-23 402 540
-541 -23
-541 58
23 -58 541
-542 -540
-542 -541
540 541 542
-543 23
-543 -411
-23 411 543
-544 -23
-544 59
23 -59 544
-545 -543
-545 -544
543 544 545
-546 23
-546 -420
-23 420 546
-547 -23
-547 60
23 -60 547
-548 -546
-548 -547
546 547 548
-549 23
-549 -429
-23 429 549
-550 -23
-550 61
23 -61 550
-551 -549
-551 -550
549 550 551
-552 23
-552 -438
-23 438 552
-553 1
-553 98
-1 -98 553
-554 -98
-554 99
98 -99 554
-555 -553
-555 -554
553 554 555
-556 2
-556 98
-2 -98 556
-557 -98
-557 -443
98 443 557
-558 -556
-558 -557
556 557 558
-559 3
-559 98
-3 -98 559
-560 -98
-560 -446
98 446 560
-561 -559
-561 -560
559 560 561
-562 4
-562 98
-4 -98 562
-563 -98
-563 -449
98 449 563
-564 -562
-564 -563
562 563 564
-565 5
-565 98
-5 -98 565
-566 -98
-566 -452
98 452 566
-567 -565
-567 -566
565 566 567
-568 6
-568 98
-6 -98 568
-569 -98
-569 -455
98 455 569
-570 -568
-570 -569
568 569 570
-571 7
-571 98
-7 -98 571
-572 -98
-572 -458
98 458 572
-573 -571
-573 -572
571 572 573
-574 8
-574 98
-8 -98 574
-575 -98
-575 -461
98 461 575
-576 -574
-576 -575
574 575 576
-577 9
-577 98
-9 -98 577
-578 -98
-578 -464
98 464 578
-579 -577
-579 -578
577 578 579
-580 10
-580 98
-10 -98 580
-581 -98
-581 -467
98 467 581
-582 -580
-582 -581
580 581 582
-583 11
-583 98
-11 -98 583
-584 -98
-584 -470
98 470 584
-585 -583
-585 -584
583 584 585
-586 12
-586 98
-12 -98 586
-587 -98
-587 -473
98 473 587
-588 -586
-588 -587
586 587 588
-589 13
-589 98
-13 -98 589
-590 -98
-590 -476
98 476 590
-591 -589
-591 -590
589 590 591
-592 14
-592 98
-14 -98 592
-593 -98
-593 -479
98 479 593
-594 -592
-594 -593
592 593 594
-595 15
-595 98
-15 -98 595
-596 -98
-596 -482
98 482 596
-597 -595
-597 -596
595 596 597
-598 16
-598 98
-16 -98 598
-599 -98
-599 -485
98 485 599
-600 -598
-600 -599
598 599 600
-601 17
-601 98
-17 -98 601
-602 -98
-602 -488
98 488 602
-603 -601
-603 -602
601 602 603
-604 18
-604 98
-18 -98 604
-605 -98
-605 -491
98 491 605
-606 -604
-606 -605
604 605 606
-607 19
-607 98
-19 -98 607
-608 -98
-608 -494
98 494 608
-609 -607
-609 -608
607 608 609
-610 20
-610 98
-20 -98 610
-611 -98
-611 -497
98 497 611
-612 -610
-612 -611
610 611 612
-613 21
-613 98
-21 -98 613
-614 -98
-614 -500
98 500 614
-615 -613
-615 -614
613 614 615
-616 22
-616 98
-22 -98 616
-617 -98
-617 -503
98 503 617
-618 -616
-618 -617
616 617 618
-619 -98
-619 -506
98 506 619
-620 -98
-620 -509
98 509 620
-621 -98
-621 -512
98 512 621
-622 -98
-622 -515
98 515 622
-623 -98
-623 -518
98 518 623
-624 -98
-624 -521
98 521 624
-625 -98
-625 -524
98 524 625
-626 -98
-626 -527
98 527 626
-627 -98
-627 -530
98 530 627
-628 -98
-628 -533
98 533 628
-629 -98
-629 -536
98 536 629
-630 -98
-630 -539
98 539 630
-631 -98
-631 -542
98 542 631
-632 -98
-632 -545
98 545 632
-633 -98
-633 -548
98 548 633
-634 -98
-634 -551
98 551 634
-635 -98
-635 552
98 -552 635
-636 -61
-636 440
61 -440 636
-637 23
-637 -636
-23 636 637
637
